DIR: 0.0, EFF: 0.8333333333333333, INT: 0.08333333333333333, OBJ: 0.08333333333333333
original problem has 232 variables (231 bin, 0 int, 0 impl, 1 cont) and 137 constraints
unknown variable <t_X00239> in line 2 of solution file </mnt/lscratch/users/dferrario/Adaptive-Cutsel-MILP/TransformedSolutions/23588__trans__seed__1.sol>
  (further unknown variables are ignored)
1/1 feasible solution given by solution candidate storage, new primal bound 8.090000e+03

presolving:
   (0.0s) running MILP presolver
   (0.0s) MILP presolver found nothing
   (0.0s) probing cycle finished: starting next cycle
presolving (1 rounds: 1 fast, 1 medium, 1 exhaustive):
 0 deleted vars, 1 deleted constraints, 1 added constraints, 0 tightened bounds, 0 added holes, 2 changed sides, 0 changed coefficients
 231 implications, 0 cliques
presolved problem has 232 variables (231 bin, 0 int, 1 impl, 0 cont) and 137 constraints
     53 constraints of type <knapsack>
      6 constraints of type <linear>
     78 constraints of type <logicor>
transformed objective value is always integral (scale: 1)
Presolving Time: 0.02
transformed 1/1 original solutions to the transformed problem space

 time | node  | left  |LP iter|LP it/n|mem/heur|mdpt |vars |cons |rows |cuts |sepa|confs|strbr|  dualbound   | primalbound  |  gap   | compl. 
  0.0s|     1 |     0 |   430 |     - |  4048k |   0 | 232 | 137 | 137 |   0 |  0 |   0 |   0 | 7.649866e+03 | 8.090000e+03 |   5.75%| unknown
Computing relative interior point (time limit: 7199.97, iter limit: 4300) ...
  0.1s|     1 |     0 |   472 |     - |  8347k |   0 | 233 | 137 | 147 |  10 |  1 |   0 |   0 | 7.649866e+03 | 8.090000e+03 |   5.75%| unknown
  0.1s|     1 |     0 |   472 |     - |  8347k |   0 | 233 | 137 | 147 |  10 |  1 |   0 |   0 | 7.667972e+03 | 8.090000e+03 |   5.50%| unknown
  0.2s|     1 |     0 |   571 |     - |    12M |   0 | 233 | 137 | 157 |  20 |  2 |   0 |   0 | 7.689059e+03 | 8.090000e+03 |   5.21%| unknown
  0.2s|     1 |     0 |   701 |     - |    15M |   0 | 233 | 137 | 167 |  30 |  3 |   0 |   0 | 7.707355e+03 | 8.090000e+03 |   4.96%| unknown
  0.3s|     1 |     0 |   858 |     - |    17M |   0 | 233 | 137 | 177 |  40 |  4 |   0 |   0 | 7.734645e+03 | 8.090000e+03 |   4.59%| unknown
  0.3s|     1 |     0 |  1017 |     - |    22M |   0 | 233 | 137 | 187 |  50 |  5 |   0 |   0 | 7.740890e+03 | 8.090000e+03 |   4.51%| unknown
  0.4s|     1 |     0 |  1121 |     - |    29M |   0 | 233 | 137 | 191 |  60 |  6 |   0 |   0 | 7.747952e+03 | 8.090000e+03 |   4.41%| unknown
  0.5s|     1 |     0 |  1214 |     - |    30M |   0 | 233 | 137 | 201 |  70 |  7 |   0 |   0 | 7.750568e+03 | 8.090000e+03 |   4.38%| unknown
  0.5s|     1 |     0 |  1250 |     - |    34M |   0 | 233 | 137 | 211 |  80 |  8 |   0 |   0 | 7.751813e+03 | 8.090000e+03 |   4.36%| unknown
  0.6s|     1 |     0 |  1294 |     - |    40M |   0 | 233 | 137 | 221 |  90 |  9 |   0 |   0 | 7.753909e+03 | 8.090000e+03 |   4.33%| unknown
  0.7s|     1 |     0 |  1377 |     - |    45M |   0 | 233 | 137 | 210 | 100 | 10 |   0 |   0 | 7.755372e+03 | 8.090000e+03 |   4.31%| unknown
  0.8s|     1 |     0 |  1430 |     - |    47M |   0 | 233 | 137 | 220 | 110 | 11 |   0 |   0 | 7.756545e+03 | 8.090000e+03 |   4.30%| unknown
  0.8s|     1 |     0 |  1465 |     - |    54M |   0 | 233 | 137 | 230 | 120 | 12 |   0 |   0 | 7.757812e+03 | 8.090000e+03 |   4.28%| unknown
  0.9s|     1 |     0 |  1541 |     - |    55M |   0 | 233 | 137 | 240 | 130 | 13 |   0 |   0 | 7.758888e+03 | 8.090000e+03 |   4.27%| unknown
 time | node  | left  |LP iter|LP it/n|mem/heur|mdpt |vars |cons |rows |cuts |sepa|confs|strbr|  dualbound   | primalbound  |  gap   | compl. 
  1.0s|     1 |     0 |  1590 |     - |    60M |   0 | 233 | 137 | 250 | 140 | 14 |   0 |   0 | 7.759729e+03 | 8.090000e+03 |   4.26%| unknown
  1.1s|     1 |     0 |  1718 |     - |    60M |   0 | 233 | 137 | 234 | 150 | 15 |   0 |   0 | 7.760141e+03 | 8.090000e+03 |   4.25%| unknown
  1.2s|     1 |     0 |  1776 |     - |    62M |   0 | 233 | 137 | 244 | 160 | 16 |   0 |   0 | 7.761000e+03 | 8.090000e+03 |   4.24%| unknown
  1.3s|     1 |     0 |  1835 |     - |    68M |   0 | 233 | 137 | 254 | 170 | 17 |   0 |   0 | 7.761000e+03 | 8.090000e+03 |   4.24%| unknown
  1.4s|     1 |     0 |  1940 |     - |    68M |   0 | 233 | 137 | 264 | 180 | 18 |   0 |   0 | 7.761731e+03 | 8.090000e+03 |   4.23%| unknown
  1.5s|     1 |     0 |  2058 |     - |    69M |   0 | 233 | 137 | 274 | 190 | 19 |   0 |   0 | 7.763955e+03 | 8.090000e+03 |   4.20%| unknown
  1.6s|     1 |     0 |  2097 |     - |    70M |   0 | 233 | 137 | 284 | 200 | 20 |   0 |   0 | 7.764684e+03 | 8.090000e+03 |   4.19%| unknown
  1.7s|     1 |     0 |  2171 |     - |    78M |   0 | 233 | 137 | 249 | 210 | 21 |   0 |   0 | 7.766316e+03 | 8.090000e+03 |   4.17%| unknown
  1.9s|     1 |     0 |  2293 |     - |    78M |   0 | 233 | 137 | 259 | 220 | 22 |   0 |   0 | 7.767000e+03 | 8.090000e+03 |   4.16%| unknown
  2.0s|     1 |     0 |  2454 |     - |    79M |   0 | 233 | 137 | 269 | 230 | 23 |   0 |   0 | 7.767348e+03 | 8.090000e+03 |   4.15%| unknown
  2.1s|     1 |     0 |  2495 |     - |    89M |   0 | 233 | 137 | 279 | 240 | 24 |   0 |   0 | 7.767554e+03 | 8.090000e+03 |   4.15%| unknown
  2.2s|     1 |     0 |  2550 |     - |    91M |   0 | 233 | 137 | 289 | 250 | 25 |   0 |   0 | 7.767643e+03 | 8.090000e+03 |   4.15%| unknown
  2.3s|     1 |     0 |  2620 |     - |    91M |   0 | 233 | 137 | 254 | 260 | 26 |   0 |   0 | 7.767683e+03 | 8.090000e+03 |   4.15%| unknown
  2.4s|     1 |     0 |  2665 |     - |    91M |   0 | 233 | 137 | 264 | 270 | 27 |   0 |   0 | 7.768000e+03 | 8.090000e+03 |   4.15%| unknown
  2.5s|     1 |     0 |  2754 |     - |    92M |   0 | 233 | 137 | 274 | 280 | 28 |   0 |   0 | 7.768000e+03 | 8.090000e+03 |   4.15%| unknown
 time | node  | left  |LP iter|LP it/n|mem/heur|mdpt |vars |cons |rows |cuts |sepa|confs|strbr|  dualbound   | primalbound  |  gap   | compl. 
  2.6s|     1 |     0 |  2823 |     - |   105M |   0 | 233 | 137 | 284 | 290 | 29 |   0 |   0 | 7.768000e+03 | 8.090000e+03 |   4.15%| unknown
  2.8s|     1 |     0 |  2943 |     - |   107M |   0 | 233 | 137 | 294 | 300 | 30 |   0 |   0 | 7.768000e+03 | 8.090000e+03 |   4.15%| unknown
  2.9s|     1 |     0 |  3041 |     - |   107M |   0 | 233 | 137 | 304 | 310 | 31 |   0 |   0 | 7.768000e+03 | 8.090000e+03 |   4.15%| unknown
  3.0s|     1 |     0 |  3184 |     - |   108M |   0 | 233 | 137 | 266 | 320 | 32 |   0 |   0 | 7.768000e+03 | 8.090000e+03 |   4.15%| unknown
  3.1s|     1 |     0 |  3362 |     - |   122M |   0 | 233 | 137 | 276 | 330 | 33 |   0 |   0 | 7.768003e+03 | 8.090000e+03 |   4.15%| unknown
  3.2s|     1 |     0 |  3450 |     - |   124M |   0 | 233 | 137 | 286 | 340 | 34 |   0 |   0 | 7.768106e+03 | 8.090000e+03 |   4.14%| unknown
  3.4s|     1 |     0 |  3592 |     - |   124M |   0 | 233 | 137 | 296 | 350 | 35 |   0 |   0 | 7.768239e+03 | 8.090000e+03 |   4.14%| unknown
  3.5s|     1 |     0 |  3676 |     - |   124M |   0 | 233 | 137 | 306 | 360 | 36 |   0 |   0 | 7.768293e+03 | 8.090000e+03 |   4.14%| unknown
  3.6s|     1 |     0 |  3773 |     - |   124M |   0 | 233 | 137 | 316 | 370 | 37 |   0 |   0 | 7.769000e+03 | 8.090000e+03 |   4.13%| unknown
  3.7s|     1 |     0 |  3836 |     - |   125M |   0 | 233 | 137 | 269 | 380 | 38 |   0 |   0 | 7.769000e+03 | 8.090000e+03 |   4.13%| unknown
  3.8s|     1 |     0 |  3927 |     - |   125M |   0 | 233 | 137 | 279 | 390 | 39 |   0 |   0 | 7.769000e+03 | 8.090000e+03 |   4.13%| unknown
  3.9s|     1 |     0 |  3985 |     - |   125M |   0 | 233 | 137 | 289 | 400 | 40 |   0 |   0 | 7.769000e+03 | 8.090000e+03 |   4.13%| unknown
  4.0s|     1 |     0 |  4052 |     - |   127M |   0 | 233 | 137 | 299 | 410 | 41 |   0 |   0 | 7.769000e+03 | 8.090000e+03 |   4.13%| unknown
  4.2s|     1 |     0 |  4217 |     - |   145M |   0 | 233 | 137 | 309 | 420 | 42 |   0 |   0 | 7.769000e+03 | 8.090000e+03 |   4.13%| unknown
  4.3s|     1 |     0 |  4343 |     - |   146M |   0 | 233 | 137 | 319 | 430 | 43 |   0 |   0 | 7.769000e+03 | 8.090000e+03 |   4.13%| unknown
 time | node  | left  |LP iter|LP it/n|mem/heur|mdpt |vars |cons |rows |cuts |sepa|confs|strbr|  dualbound   | primalbound  |  gap   | compl. 
  4.4s|     1 |     0 |  4439 |     - |   146M |   0 | 233 | 137 | 278 | 440 | 44 |   0 |   0 | 7.769000e+03 | 8.090000e+03 |   4.13%| unknown
  4.5s|     1 |     0 |  4590 |     - |   146M |   0 | 233 | 137 | 288 | 450 | 45 |   0 |   0 | 7.769000e+03 | 8.090000e+03 |   4.13%| unknown
  4.6s|     1 |     0 |  4651 |     - |   148M |   0 | 233 | 137 | 298 | 460 | 46 |   0 |   0 | 7.769000e+03 | 8.090000e+03 |   4.13%| unknown
  4.7s|     1 |     0 |  4782 |     - |   148M |   0 | 233 | 137 | 308 | 470 | 47 |   0 |   0 | 7.769000e+03 | 8.090000e+03 |   4.13%| unknown
  4.8s|     1 |     0 |  4930 |     - |   148M |   0 | 233 | 137 | 318 | 480 | 48 |   0 |   0 | 7.769000e+03 | 8.090000e+03 |   4.13%| unknown
  4.9s|     1 |     0 |  5069 |     - |   149M |   0 | 233 | 137 | 328 | 490 | 49 |   0 |   0 | 7.769000e+03 | 8.090000e+03 |   4.13%| unknown
  4.9s|     1 |     0 |  5103 |     - |   149M |   0 | 233 | 137 | 273 | 495 | 50 |   0 |   0 | 7.769000e+03 | 8.090000e+03 |   4.13%| unknown
  5.7s|     1 |     2 |  5103 |     - |   149M |   0 | 233 | 137 | 273 | 495 | 50 |   0 |  29 | 7.781761e+03 | 8.090000e+03 |   3.96%| unknown
  6.6s|   100 |    15 |  8478 |  34.1 |   150M |  13 | 233 | 241 | 158 | 495 |  0 | 106 | 372 | 7.855497e+03 | 8.090000e+03 |   2.99%|  37.32%
  6.8s|   200 |    21 | 10343 |  26.3 |   150M |  16 | 233 | 301 | 158 | 495 |  0 | 166 | 484 | 7.896416e+03 | 8.090000e+03 |   2.45%|  43.37%
  7.0s|   300 |    21 | 12094 |  23.4 |   150M |  16 | 233 | 332 | 158 | 495 |  0 | 197 | 528 | 7.930410e+03 | 8.090000e+03 |   2.01%|  54.58%
  7.1s|   400 |    19 | 13611 |  21.3 |   150M |  16 | 233 | 361 | 158 | 495 |  0 | 226 | 561 | 7.968973e+03 | 8.090000e+03 |   1.52%|  65.92%
  7.2s|   500 |    11 | 14838 |  19.5 |   150M |  16 | 233 | 375 | 158 | 495 |  0 | 240 | 577 | 7.999495e+03 | 8.090000e+03 |   1.13%|  84.46%

SCIP Status        : problem is solved [optimal solution found]
Solving Time (sec) : 7.21
Solving Nodes      : 537
Primal Bound       : +8.09000000000000e+03 (1 solutions)
Dual Bound         : +8.09000000000000e+03
Gap                : 0.00 %
